(set-logic QF_SLIA)
(declare-fun var0 () String)
(assert (not (str.in_re var0 (re.++ ((_ re.loop 6 203) (re.++ (re.union (str.to_re "$+F") (re.union (str.to_re "*Gh") (re.union (str.to_re "}o|") (str.to_re "QZ")))) (re.++ (re.union (str.to_re ",_") (re.union (str.to_re "&O") (re.union (str.to_re "I") (str.to_re "`29")))) (re.++ (re.union (str.to_re "^&") (re.union (str.to_re "ju7") (re.union (str.to_re "r") (str.to_re ".z")))) (re.union (str.to_re "Xn") (re.union (str.to_re "wu") (re.union (str.to_re "%:'") (str.to_re "#0")))))))) (re.++ ((_ re.loop 10 322) (re.++ (re.union (str.to_re "a") (re.union (str.to_re "K") (re.union (str.to_re "X") (str.to_re "J")))) (re.++ (re.union (str.to_re "8?") (re.union (str.to_re "lv") (re.union (str.to_re "7G") (str.to_re "[T")))) (re.++ (re.union (str.to_re "Ok") (re.union (str.to_re "v-") (re.union (str.to_re "j") (str.to_re "=bY")))) (re.union (str.to_re "q{y") (re.union (str.to_re "sd&") (re.union (str.to_re "AH;") (str.to_re "}|")))))))) (re.++ ((_ re.loop 3 714) (re.++ (re.union (str.to_re "c2(") (re.union (str.to_re "C]E") (re.union (str.to_re "\\V") (str.to_re "#")))) (re.++ (re.union (str.to_re "w~B") (re.union (str.to_re "[") (re.union (str.to_re "N") (str.to_re "}")))) (re.++ (re.union (str.to_re "?") (re.union (str.to_re ".") (re.union (str.to_re "/") (str.to_re "Ki")))) (re.union (str.to_re "0|.") (re.union (str.to_re ";E") (re.union (str.to_re "|&u") (str.to_re ">")))))))) ((_ re.loop 17 167) (re.++ (re.union (str.to_re "Ff") (re.union (str.to_re "w|/") (re.union (str.to_re "z") (str.to_re "VgD")))) (re.++ (re.union (str.to_re "qpq") (re.union (str.to_re "1\u0022*") (re.union (str.to_re "JH") (str.to_re "f")))) (re.++ (re.union (str.to_re "q_") (re.union (str.to_re "Ge") (re.union (str.to_re "%*") (str.to_re "S:A")))) (re.union (str.to_re "k") (re.union (str.to_re "}") (re.union (str.to_re "{") (str.to_re "@"))))))))))))))
(assert (not (str.in_re var0 (re.++ ((_ re.loop 19 646) (re.++ (re.union (str.to_re "Hk") (re.union (str.to_re "kS") (re.union (str.to_re "*NK") (str.to_re "@,")))) (re.++ (re.union (str.to_re "<n") (re.union (str.to_re "<!p") (re.union (str.to_re "@8") (str.to_re "X")))) (re.++ (re.union (str.to_re "KzY") (re.union (str.to_re "%") (re.union (str.to_re "%") (str.to_re "aoQ")))) (re.union (str.to_re "5~") (re.union (str.to_re "s>~") (re.union (str.to_re "%8\u0022") (str.to_re "{\\:")))))))) (re.++ ((_ re.loop 4 907) (re.++ (re.union (str.to_re "!=") (re.union (str.to_re "TZj") (re.union (str.to_re "<") (str.to_re ">K4")))) (re.++ (re.union (str.to_re "!u") (re.union (str.to_re "di") (re.union (str.to_re "y5") (str.to_re "ZIR")))) (re.++ (re.union (str.to_re "i") (re.union (str.to_re "Z") (re.union (str.to_re "?w") (str.to_re "4")))) (re.union (str.to_re "'") (re.union (str.to_re "O}") (re.union (str.to_re "Y") (str.to_re "A0q")))))))) (re.++ ((_ re.loop 15 604) (re.++ (re.union (str.to_re "o`") (re.union (str.to_re "g`D") (re.union (str.to_re "\u0022$") (str.to_re ".N")))) (re.++ (re.union (str.to_re "y") (re.union (str.to_re ",") (re.union (str.to_re "Gpf") (str.to_re "*JE")))) (re.++ (re.union (str.to_re ";`h") (re.union (str.to_re "t") (re.union (str.to_re "Z") (str.to_re "|<")))) (re.union (str.to_re "H0/") (re.union (str.to_re "}") (re.union (str.to_re "P)") (str.to_re "[NM")))))))) ((_ re.loop 8 30) (re.++ (re.union (str.to_re "nc^") (re.union (str.to_re "4\\C") (re.union (str.to_re "z") (str.to_re "IK")))) (re.++ (re.union (str.to_re "'y") (re.union (str.to_re "G\\B") (re.union (str.to_re "|") (str.to_re "H]A")))) (re.++ (re.union (str.to_re "Sl") (re.union (str.to_re "ui") (re.union (str.to_re "Ct") (str.to_re "A")))) (re.union (str.to_re "v|<") (re.union (str.to_re "S!Z") (re.union (str.to_re "r(x") (str.to_re "1h/"))))))))))))))
(assert (not (str.in_re var0 (re.++ (re.* re.allchar) (re.++ (re.union (str.to_re "<") (re.union (str.to_re ">") (re.union (str.to_re "'") (re.union (str.to_re "\u0022") (str.to_re "&"))))) (re.* re.allchar))))))
(assert (<= 50 (str.len var0)))
(check-sat)
(get-model)
